ELEMENTS H   O  N Rh END
SPECIES  H2 H O2 O OH HO2 H2O2 H2O
 N2  NO N NH NH2 HNO N2O NNH
NO2 NH3
END
REACTIONS
H2+O2=2OH                      0.170E+14  0.000  47780.000
OH+H2=H2O+H                    0.117E+10  1.300   3626.000 ! D-L$W
O+OH=O2+H                      0.400E+15 -0.500      0.000 ! JAM 1986
O+H2=OH+H                      0.506E+05  2.670   6290.000 ! KLEMM,ET AL 1986
H+O2+M=HO2+M                   0.361E+18 -0.720      0.000 ! DIXON-LEWIS
    H2O/18.6/  H2/2.86/  N2/1.26/
OH+HO2=H2O+O2                  0.750E+13  0.000      0.000 ! D-L
H+HO2=2OH                      0.140E+15  0.000   1073.000 ! D-L
O+HO2=O2+OH                    0.140E+14  0.000   1073.000 ! D-L
2OH=O+H2O                      0.600E+09  1.300      0.000 ! COHEN-WEST.
H+H+M=H2+M                     0.100E+19 -1.000      0.000 ! D-L
 H2/0.0/ H2O/0.0/
H+H+H2=H2+H2                   0.920E+17 -0.600      0.000
H+H+H2O=H2+H2O                 0.600E+20 -1.250      0.000
H+OH+M=H2O+M                   0.160E+23 -2.000      0.000 ! D-L
    H2O/5/
H+O+M=OH+M                     0.620E+17 -0.600      0.000 ! D-L
    H2O/5/
O+O+M=O2+M                     0.189E+14  0.000  -1788.000 ! NBS
H+HO2=H2+O2                    0.125E+14  0.000      0.000 ! D-L
HO2+HO2=H2O2+O2                0.200E+13  0.000      0.000
H2O2+M=OH+OH+M                 0.130E+18  0.000  45500.000
H2O2+H=HO2+H2                  0.160E+13  0.000   3800.000
H2O2+OH=H2O+HO2                0.100E+14  0.000   1800.000
HO2+NO=NO2+OH                  0.211E+13  0.000   -479.000 ! HOWARD
NO2+H=NO+OH                    0.350E+15  0.000   1500.000
NO2+O=NO+O2                    0.100E+14  0.000    600.000
NO2+M=NO+O+M                   0.110E+17  0.000  66000.000 ! PG
NH+O2=HNO+O                    0.100E+14  0.000  12000.000 ! NH3 CST
NH+O2=NO+OH                    0.760E+11  0.000   1530.000 ! HACK.ET AL
NH+NO=N2O+H                    0.240E+16 -0.800      0.000 ! JAM,9/87
N2O+OH=N2+HO2                  0.200E+13  0.000  10000.000 ! JAM,9/87
N2O+H=N2+OH                    0.760E+14  0.000  15200.000 ! NH3  CST
N2O+M=N2+O+M                   0.160E+15  0.000  51600.000 ! PG
N2O+O=N2+O2                    0.100E+15  0.000  28200.000 ! PG
N2O+O=NO+NO                    0.100E+15  0.000  28200.000 ! PG
NH+OH=HNO+H                    0.200E+14  0.000      0.000 ! NH3 CST
NH+OH=N+H2O                    0.500E+12  0.500   2000.000 ! NH3 CST
NH+N=N2+H                      0.300E+14  0.000      0.000 ! JAM
   NH+H=N+H2                   0.100E+15  0.000      0.000 ! JAM
NH2+O=HNO+H                    0.663E+15 -0.500      0.000
NH2+O=NH+OH                    0.675E+13  0.000      0.000
NH2+OH=NH+H2O                  0.400E+07  2.000   1000.000 ! JAM,9/87
NH2+H=NH+H2                    0.692E+14  0.000   3650.000
NH2+NO=NNH+OH                  0.640E+16 -1.250      0.000
NH2+NO=N2+H2O                  0.620E+16 -1.250      0.000
NH3+OH=NH2+H2O                 0.204E+07  2.040    566.000 ! LOUGE
NH3+H=NH2+H2                   0.636E+06  2.390  10171.000 ! MICHAEL
NH3+O=NH2+OH                   0.210E+14  0.000   9000.000 ! PG
NNH=N2+H                       0.100E+05  0.000      0.000 ! JAM,9/87
NNH+NO=N2+HNO                  0.500E+14  0.000      0.000
NNH+H=N2+H2                    0.100E+15  0.000      0.000 ! JAM,9/87
NNH+OH=N2+H2O                  0.500E+14  0.000      0.000
NNH+NH2=N2+NH3                 0.500E+14  0.000      0.000
NNH+NH=N2+NH2                  0.500E+14  0.000      0.000
NNH+O=N2O+H                    0.100E+15  0.000      0.000
HNO+M=H+NO+M                   0.150E+17  0.000  48680.000 ! NH3 CST
    H2O/10/  O2/2/ N2/2/ H2/2/
HNO+OH=NO+H2O                  0.360E+14  0.000      0.000 ! NH3 CST
HNO+H=H2+NO                    0.500E+13  0.000      0.000 ! NH3 CST
HNO+NH2=NH3+NO                 0.200E+14  0.000   1000.000 ! NH3 CST
N+NO=N2+O                      0.327E+13  0.300      0.000 ! LEEDS,MONAT
N+O2=NO+O                      0.640E+10  1.000   6280.000
N+OH=NO+H                      0.380E+14  0.000      0.000 ! SMITH,FLOWER
END
