!!!!!! Gas-phase Mechanism for Silicon Carbine depostion !!!!!!!
! Reference:
! M:  Miller, James A., and Carl F. Melius.
!     "Kinetic and thermodynamic issues in the formation of aromatic
!        compounds in flames of aliphatic fuels."
!     Combustion and flame 91.1 (1992): 21-39.
! W:  Westbrook, Charles K., and William J. Pitz.
!     "A comprehensive chemical kinetic reaction mechanism for oxidation
!      and pyrolysis of propane and propene."
!     Combustion science and technology 37.3-4 (1984): 117-152.
! A:  Allendorf, Mark D., and Robert J. Kee.
!     "A model of silicon carbide chemical vapor deposition."
!     Journal of the Electrochemical Society 138.3 (1991): 841-852.
!
! There are some typos in Allendorf's papers. The first symbol after
! exclamation mark denote the data source
!
ELEMENTS
H C SI
END
SPECIES
C2H C2H2 C2H3 C2H4 C2H5 C2H6 C3H2 C3H4
C3H6 C3H8 CH CH2 CH2(S) CH2CHCH2
CH3 CH4 H H2 H2CCCH H2SISIH2 H3SISIH
I*C3H7 N*C3H7 SI SI2 SI2H2 SI2H3
SI2H5 SI2H6 SI3 SI3H8 SIH SIH2 SIH3 SIH4
END
REACTIONS
C3H8=CH3+C2H5                  1.698E+16      0.0    84840.0
CH3+C3H8=CH4+I*C3H7            1.097E+15      0.0    25140.0
CH3+C3H8=CH4+N*C3H7            1.097E+15      0.0    25140.0
H+C3H8=H2+I*C3H7               8.710E+06      2.0     5000.0
H+C3H8=H2+N*C3H7               5.623E+07      2.0     7700.0
I*C3H7=H+C3H6                  6.310E+13      0.0    36900.0
I*C3H7=CH3+C2H4                1.995E+10      0.0    29500.0
N*C3H7=H+C3H6                  1.256E+14      0.0    37000.0
N*C3H7=CH3+C2H4                9.550E+13      0.0    31000.0
I*C3H7+C3H8=N*C3H7+C3H8        3.020E+10      0.0    12900.0
C2H3+C3H8=C2H4+I*C3H7          1.000E+11      0.0    10400.0
C2H3+C3H8=C2H4+N*C3H7          1.000E+11      0.0    10400.0
C2H5+C3H8=C2H6+I*C3H7          1.000E+11      0.0    10400.0
C2H5+C3H8=C2H6+N*C3H7          1.000E+11      0.0    10400.0
C3H6+H=CH2CHCH2+H2             5.010E+12      0.0     1500.0
C3H6+CH3=CH2CHCH2+CH4          8.910E+10      0.0     8500.0
C3H6+C2H5=CH2CHCH2+C2H6        1.000E+11      0.0     9200.0
C3H8+CH2CHCH2=I*C3H7+C3H6      3.980E+11      0.0    16200.0
C3H8+CH2CHCH2=N*C3H7+C3H6      3.980E+11      0.0    16200.0
CH2CHCH2=C3H4+H                3.980E+13      0.0    70000.0
C3H6=CH2CHCH2+H                1.000E+13      0.0    78000.0
C3H6=C2H3+CH3                  6.310E+15      0.0    85800.0
CH2CHCH2+H=C3H4+H2             1.000E+13      0.0        0.0
CH3+CH3(+M)=C2H6(+M)            9.03E+16    -1.18      654.0
   LOW   / 3.18E+41 -7.03  2762.0 /
   TROE  / 0.6041  6927.0 132 /
   H2 /2/
CH3+H(+M)=CH4(+M)               6.00E+16     -1.0        0.0
   LOW   / 8.00E+26  -3.0     0.0 /
   SRI   / 0.45     797.0     0.979   1.0  0.0 /
   H2  /2/
CH4+H=CH3+H2                    2.20E+04      3.0     8750.0
CH3+H=CH2+H2                    9.00E+13      0.0    15100.0
CH2+H=CH+H2                     1.00E+18   -1.560        0.0
CH+C2H2=C3H2+H                  1.00E+14      0.0        0.0
CH+CH2=C2H2+H                   4.00E+13      0.0        0.0
CH+CH3=C2H3+H                   3.00E+13      0.0        0.0
CH+CH4=C2H4+H                   6.00E+13      0.0        0.0
! M88 ~= W48
! A34 5.50E+00  4.0  8300.0 (might be a typo)
C2H6+CH3=C2H5+CH4               5.50E-01      4.0     8300.0
C2H6+H=C2H5+H2                  5.40E+02      3.5     5210.0
C2H4+H=C2H3+H2                  1.10E+14      0.0     8500.0
!M95 A37
CH2+CH3=C2H4+H                  4.00E+13      0.0        0.0
! M96 :   HIGH /2.21E+13      0.0     2066.0/
!         LOW   / 6.37E+27  -2.76  -54.0 /
!         H2 /2.0/
! Data here is from Chemkin fuel library
H+C2H4(+M)=C2H5(+M)             1.95E+12    0.454     1822.0
   LOW  /2.16E42   -7.62E0  6.7E3 /
   TROE /9.75E-1 2.1E2 9.84E2 4.374E3/
   H2 /2.0/
C2H5+H=CH3+CH3                  1.00E+14      0.0        0.0
! A40 M101
H2+C2H=C2H2+H                   4.09E+05    2.390      864.3
H+C2H2(+M)=C2H3(+M)             5.54E+12      0.0     2410.0
   LOW   / 2.67E+27  -3.5   2410.0/
   H2 /2.0/
C2H3+H=C2H2+H2                  4.00E+13      0.0        0.0
C2H3+C2H=2C2H2                  3.00E+13      0.0        0.0
C2H3+CH=CH2+C2H2                5.00E+13      0.0        0.0
CH2(S)+M=CH2+M                  1.00E+13      0.0        0.0
   H /0.0/
CH2(S)+CH4=2CH3                 4.00E+13      0.0        0.0
CH2(S)+C2H6=CH3+C2H5            1.20E+14      0.0        0.0
CH2(S)+H2=CH3+H                 7.00E+13      0.0        0.0
CH2(S)+H=CH2+H                  2.00E+14      0.0        0.0
2CH2=C2H2+H+H                   4.00E+13      0.0        0.0
CH2+C2H2=H2CCCH+H               1.20E+13      0.0     6600.0
! M143:   1.8E+14
! A52:    3.0E+13
! NIST: Homman and Schweinfurth, recommended  1.80E+12 (298K)
! Chemkin: 2.0E+13
CH2(S)+C2H2=H2CCCH+H            2.00E+13      0.0        0.0
C2H2+M=C2H+H+M                  4.20E+16      0.0   107000.0
C2H4+M=C2H2+H2+M                1.50E+15      0.0    55800.0
C2H4+M=C2H3+H+M                 1.40E+16      0.0    82360.0
2H+M=H2+M                       1.00E+18     -1.0        0.0
   H2 /0.0/
2H+H2=H2+H2                    9.200E+16     -0.6        0.0
! The rate is obtained from P. Ho doi: 10.1021/j100091a032
SIH4(+M)=SIH2+H2(+M)            3.120E+09     1.7    54710.0
   LOW /5.21E+29 -3.54 57550.0/
   TROE /-0.4984  888.3  209.4  2760.00/
   SIH4 /4.00/ SI2H6 /4.00/
! The rate is obtained from P. Raghunath doi:10.1002/qua.24396
!  Lindemann's formulation is used instead of Troe's
SIH4(+M)=SIH3+H(+M)             1.01E+17     -0.26  91719.38
   LOW /7.4072E+35   -4.86   93984.79/
! The rate is obtained from P. Ho doi: 10.1021/j100091a032
SI2H6(+M)=SIH2+SIH4(+M)         1.810E+10    1.700   50203.0
   LOW /5.09E+53 -10.37 56034.0/
   TROE /4.375E-05 438.5 2726.0 438.20/
   SIH4 /4.00/ SI2H6 /4.00/
! The rate is obtained from P. Ho doi: 10.1021/j100091a032
SI2H6(+M)=H3SISIH+H2(+M)        9.09E+09      1.8    54197.0
   LOW  /1.94E+44  -7.77   59023.0/
   TROE /4.375E-5   438.5   2726.0   438.20/
   SIH4 /4.00/ SI2H6 /4.00/
SIH4+H=SIH3+H2                 1.460E+13      0.0     2500.0
SIH4+SIH3=SI2H5+H2             1.770E+12      0.0     4400.0
SIH4+SIH=SI2H3+H2              1.450E+12      0.0     2000.0
SIH4+SIH=SI2H5                 1.430E+13      0.0     2000.0
! The following rate is from Votintsev1987/Ellen1997 NIST database
!  Dominanr contributor for the gas phase silicon
SIH2+M=SI+H2+M              2.999026E+15      0.0   38240.92
SIH2+H=SIH+H2                  1.390E+13      0.0     2000.0
SIH2+H=SIH3                    3.810E+13      0.0     2000.0
SIH2+SIH3=SI2H5                6.580E+12      0.0     2000.0
H2SISIH2=SI2H2+H2              3.160E+14      0.0    53000.0
H2+SIH=SIH3                    3.450E+13      0.0     2000.0
SI2H5=SI2H3+H2                 3.160E+14      0.0    53000.0
SI2H2+H=SI2H3                  8.630E+14      0.0     2000.0
H3SISIH+SIH4=SI3H8             6.020E+13      0.0        0.0
SIH2+SI2H6=SI3H8               1.810E+14      0.0        0.0
SIH3+SI2H5=SI3H8               3.310E+13      0.0        0.0
! Rate for H3SISIH is replaced by the one in Ho1994
! Allendorf's rate decrease with temperature for T>1000k
H3SISIH(+M)=H2SISIH2(+M)        2.54E+13    -0.20     5381.0
   LOW /1.10E+33   -5.76   9152.0/
   TROE /-0.4202   214.5   103.0   136.36/
   SIH4 /4.00/  SI2H6 /4.00/

! A second mechanism for the formation of gas phase SI
! This one is only used in Ho's paper for Si deposition
! It has negligible influence to SiC deposition
H3SISIH(+M)=SI+SIH4(+M)         1.42E+13     0.54    57548.0
   LOW  /2.35E+42  -7.42  60957.0/
   TROE /0.5336  629.2  2190.0  626.50/
   SIH4 /4.00/  SI2H6 /4.00/
H3SISIH+SIH4=SI2H6+SIH2         1.73E+14     0.40     8898.7
   REV /2.65E15   0.10  8473.4/
H3SISIH+H2=SIH2+SIH4            9.41E+13      0.0     4092.3
   REV /9.43E+10 1.10  5790.3/
SI+SI2H6=SIH2+H3SISIH           1.30E+15      0.0    12600.0

! ==== Reaction mechanisms for SI2 and SI3 estimated by Coltrin 1989 ====
SI2+M=SI+SI+M                    1.0E+15      0.0   74440.65
SIH2+SIH2=SI2H2+H2               6.5E+14      0.0        0.0
SI2+H2=SIH+SIH                 1.540E+13      0.0    40000.0
SI2+H=SIH+SI                   5.150E+13      0.0     5300.0
! The values here are from Kremer 2003: DOI 10.1149/1.1536180
SI+SIH2=SI2+H2                   1.5E+14      0.0        0.0
SI+SIH4=SI2H2+H2                 1.5E+14      0.0     7289.7
SIH3(+M)=SIH+H2(+M)             4.47E+14     -0.6   44696.18
   LOW /1.9753E+26  -0.31  44767.72/
! ======== clustering of Si3, from Coltrin's paper =====================
SI2+SIH2=SI3+H2                3.550E+11      0.0     2000.0
SI3+SIH2=SI2H2+SI2             1.430E+11      0.0    16200.0
SI3+H2=SI+SI2H2                9.790E+12      0.0      42600
! Coltrin 1984
SI+SI3=2SI2                    2.060E+12      0.0      24100
END
